nNurses = 170;
nHours = 37;
minHours = 6;
maxHours = 20;
maxConsec = 13;
maxPresence = 22;
demand = [18, 19, 23, 24, 21, 24, 26, 26, 21, 17, 18, 21, 20, 19, 19, 17, 18, 18, 14, 15, 15, 10, 9, 7, 9, 12, 11, 10, 12, 9, 10, 13, 14, 16, 11, 13, 14];
